certificates/rado_a6_c152_N25.cnf
c Rad2 upper bound instance: x1 + 6*x2 - x3 = 152, interval [1,25]
p cnf 25 112
1 3 25 0
-1 -3 -25 0
2 4 25 0
-2 -4 -25 0
3 5 25 0
-3 -5 -25 0
4 6 25 0
-4 -6 -25 0
5 7 25 0
-5 -7 -25 0
6 8 25 0
-6 -8 -25 0
1 9 24 0
-1 -9 -24 0
7 9 25 0
-7 -9 -25 0
2 10 24 0
-2 -10 -24 0
8 10 25 0
-8 -10 -25 0
3 11 24 0
-3 -11 -24 0
9 11 25 0
-9 -11 -25 0
4 12 24 0
-4 -12 -24 0
10 12 25 0
-10 -12 -25 0
5 13 24 0
-5 -13 -24 0
11 13 25 0
-11 -13 -25 0
6 14 24 0
-6 -14 -24 0
12 14 25 0
-12 -14 -25 0
1 15 23 0
-1 -15 -23 0
7 15 24 0
-7 -15 -24 0
13 15 25 0
-13 -15 -25 0
2 16 23 0
-2 -16 -23 0
8 16 24 0
-8 -16 -24 0
14 16 25 0
-14 -16 -25 0
3 17 23 0
-3 -17 -23 0
9 17 24 0
-9 -17 -24 0
15 17 25 0
-15 -17 -25 0
4 18 23 0
-4 -18 -23 0
10 18 24 0
-10 -18 -24 0
16 18 25 0
-16 -18 -25 0
5 19 23 0
-5 -19 -23 0
11 19 24 0
-11 -19 -24 0
17 19 25 0
-17 -19 -25 0
6 20 23 0
-6 -20 -23 0
12 20 24 0
-12 -20 -24 0
18 20 25 0
-18 -20 -25 0
1 21 22 0
-1 -21 -22 0
7 21 23 0
-7 -21 -23 0
13 21 24 0
-13 -21 -24 0
19 21 25 0
-19 -21 -25 0
2 22 0
-2 -22 0
8 22 23 0
-8 -22 -23 0
14 22 24 0
-14 -22 -24 0
20 22 25 0
-20 -22 -25 0
3 22 23 0
-3 -22 -23 0
9 23 0
-9 -23 0
15 23 24 0
-15 -23 -24 0
21 23 25 0
-21 -23 -25 0
4 22 24 0
-4 -22 -24 0
10 23 24 0
-10 -23 -24 0
16 24 0
-16 -24 0
22 24 25 0
-22 -24 -25 0
5 22 25 0
-5 -22 -25 0
11 23 25 0
-11 -23 -25 0
17 24 25 0
-17 -24 -25 0
23 25 0
-23 -25 0
