certificates/rado_a6_c152_N25.drat
-25 0
23 0
-9 0
7 0
11 0
-21 0
19 0
-5 0
-24 0
3 0
13 0
22 0
16 0
17 0
1 0
0
